
Gurobi 8.1.1 (win64, Python) logging started 05/21/19 11:35:24

Academic license - for non-commercial use only

Gurobi 8.1.1 (win64, Python) logging started 05/21/19 11:37:43

Academic license - for non-commercial use only

Gurobi 8.1.1 (win64, Python) logging started 05/21/19 11:43:05

Academic license - for non-commercial use only

Gurobi 8.1.1 (win64, Python) logging started 05/21/19 11:44:34

Academic license - for non-commercial use only

Gurobi 8.1.1 (win64, Python) logging started 05/21/19 11:46:07

Academic license - for non-commercial use only

Gurobi 8.1.1 (win64, Python) logging started 05/22/19 13:37:04

Academic license - for non-commercial use only

Gurobi 8.1.1 (win64, Python) logging started 05/22/19 13:39:06

Academic license - for non-commercial use only

Gurobi 8.1.1 (win64, Python) logging started 05/22/19 13:54:00

Academic license - for non-commercial use only

Gurobi 8.1.1 (win64, Python) logging started 05/22/19 14:52:26

Academic license - for non-commercial use only

Gurobi 8.1.1 (win64, Python) logging started 05/22/19 14:54:38

Academic license - for non-commercial use only

Gurobi 8.1.1 (win64, Python) logging started 05/22/19 14:58:06

Academic license - for non-commercial use only

Gurobi 8.1.1 (win64, Python) logging started 05/22/19 15:37:51

Academic license - for non-commercial use only

Gurobi 8.1.1 (win64, Python) logging started 05/22/19 15:52:45

Academic license - for non-commercial use only
